param set_len = 32;
param target_sum = 8450923759;
param values := [1] 447949342 [2] 807749342 [3] 228849236 [4] 642744250 [5] 874584195 [6] 305600556 [7] 577619131 [8] 610490645 [9] 779054611 [10] 922866345 [11] 473499298 [12] 621878643 [13] 913292937 [14] 523343354 [15] 594482635 [16] 33368830 [17] 386728642 [18] 474545478 [19] 1004940283 [20] 942498453 [21] 186850416 [22] 1067287588 [23] 305300596 [24] 292459294 [25] 766871075 [26] 401095818 [27] 435810991 [28] 356305812 [29] 90658133 [30] 3799732 [31] 1008733798 [32] 428384637 ;
